This is Ipopt version 3.14.16, running with linear solver MUMPS 5.7.3.

Number of nonzeros in equality constraint Jacobian...:        0
Number of nonzeros in inequality constraint Jacobian.:      196
Number of nonzeros in Lagrangian Hessian.............:        0

Total number of variables............................:       14
                     variables with only lower bounds:        0
                variables with lower and upper bounds:       14
                     variables with only upper bounds:        0
Total number of equality constraints.................:        0
Total number of inequality constraints...............:       14
        inequality constraints with only lower bounds:        0
   inequality constraints with lower and upper bounds:        0
        inequality constraints with only upper bounds:       14

iter    objective    inf_pr   inf_du lg(mu)  ||d||  lg(rg) alpha_du alpha_pr  ls
   0  1.9270760e-03 0.00e+00 1.00e+00   0.0 0.00e+00    -  0.00e+00 0.00e+00   0
   1  1.9150443e-03 0.00e+00 5.07e-02  -5.6 4.51e-02    -  9.49e-01 1.00e+00h  1
   2  1.9082362e-03 0.00e+00 4.88e-03  -6.9 1.40e-02    -  9.89e-01 1.00e+00h  1
   3  1.5454070e-03 0.00e+00 1.60e-04  -4.4 1.20e+00    -  9.61e-01 1.00e+00h  1
   4  3.8899378e-04 0.00e+00 4.93e-04  -5.0 3.79e+00    -  9.65e-01 1.00e+00h  1

Number of Iterations....: 4

                                   (scaled)                 (unscaled)
Objective...............:   3.8899378255209465e-04    3.8899378255209465e-04
Dual infeasibility......:   4.9284864379638745e-04    4.9284864379638745e-04
Constraint violation....:   0.0000000000000000e+00    0.0000000000000000e+00
Variable bound violation:   0.0000000000000000e+00    0.0000000000000000e+00
Complementarity.........:   3.7481856914080407e-05    3.7481856914080407e-05
Overall NLP error.......:   4.9284864379638745e-04    4.9284864379638745e-04


Number of objective function evaluations             = 5
Number of objective gradient evaluations             = 5
Number of equality constraint evaluations            = 0
Number of inequality constraint evaluations          = 5
Number of equality constraint Jacobian evaluations   = 0
Number of inequality constraint Jacobian evaluations = 5
Number of Lagrangian Hessian evaluations             = 0
Total seconds in IPOPT                               = 0.666

EXIT: Optimal Solution Found.
